
Gurobi 11.0.1 (win64) logging started Wed May 15 12:34:01 2024

Set parameter LogFile to value "output/solver_log49.txt"
Gurobi Optimizer version 11.0.1 build v11.0.1rc0 (win64 - Windows 11.0 (22631.2))

CPU model: 11th Gen Intel(R) Core(TM) i7-1165G7 @ 2.80GHz, instruction set [SSE2|AVX|AVX2|AVX512]
Thread count: 4 physical cores, 8 logical processors, using up to 8 threads

Optimize a model with 2518 rows, 564 columns and 46573 nonzeros
Model fingerprint: 0xb6a9364a
Variable types: 248 continuous, 316 integer (316 binary)
Coefficient statistics:
  Matrix range     [4e-01, 1e+05]
  Objective range  [1e+00, 1e+02]
  Bounds range     [1e+00, 1e+00]
  RHS range        [1e-02, 1e+05]

User MIP start produced solution with objective 77454.2 (0.01s)
User MIP start produced solution with objective 77454.2 (0.01s)
Loaded user MIP start with objective 77454.2

Presolve removed 220 rows and 185 columns
Presolve time: 0.07s
Presolved: 2298 rows, 379 columns, 44368 nonzeros
Variable types: 231 continuous, 148 integer (145 binary)

Root relaxation: cutoff, 27 iterations, 0.02 seconds (0.01 work units)

    Nodes    |    Current Node    |     Objective Bounds      |     Work
 Expl Unexpl |  Obj  Depth IntInf | Incumbent    BestBd   Gap | It/Node Time

     0     0     cutoff    0      77454.1880 77454.1880  0.00%     -    0s

Explored 1 nodes (27 simplex iterations) in 0.18 seconds (0.21 work units)
Thread count was 8 (of 8 available processors)

Solution count 2: 77454.2 77454.2 

Optimal solution found (tolerance 1.00e-04)
Best objective 7.745418804242e+04, best bound 7.745418804242e+04, gap 0.0000%
